NAME : X-n275-k28
COMMENT : "Generated by Uchoa, Pecin, Pessoa, Poggi, Subramanian, and Vidal (2013)"
TYPE : CVRP
DIMENSION : 275
EDGE_WEIGHT_TYPE : EUC_2D
CAPACITY : 10
NODE_COORD_SECTION
1 409 418
2 378 220
3 469 585
4 91 695
5 351 130
6 424 101
7 70 693
8 324 133
9 367 215
10 218 906
11 90 688
12 417 223
13 42 693
14 134 482
15 594 488
16 431 269
17 383 606
18 100 597
19 85 697
20 378 218
21 196 640
22 213 635
23 520 537
24 509 542
25 388 549
26 476 583
27 409 565
28 155 828
29 60 690
30 415 269
31 127 578
32 363 304
33 392 329
34 424 660
35 505 683
36 372 120
37 438 620
38 578 421
39 116 716
40 107 719
41 117 677
42 324 275
43 246 789
44 363 223
45 139 682
46 376 197
47 397 52
48 107 727
49 64 671
50 369 275
51 96 659
52 129 627
53 45 581
54 403 585
55 70 731
56 528 736
57 379 320
58 424 608
59 436 607
60 54 687
61 342 544
62 595 525
63 508 336
64 338 90
65 510 165
66 269 820
67 18 776
68 316 293
69 575 485
70 335 179
71 1 727
72 571 436
73 15 696
74 227 760
75 324 538
76 523 519
77 620 500
78 217 427
79 53 809
80 206 622
81 602 506
82 48 771
83 486 347
84 100 740
85 161 660
86 528 559
87 386 460
88 330 295
89 225 345
90 301 729
91 334 243
92 99 819
93 219 610
94 70 560
95 334 161
96 589 420
97 428 605
98 478 509
99 76 753
100 464 167
101 18 327
102 451 63
103 406 145
104 431 608
105 213 707
106 95 635
107 550 573
108 172 811
109 85 789
110 119 788
111 348 210
112 571 227
113 364 347
114 591 428
115 436 611
116 471 928
117 416 528
118 504 383
119 217 255
120 255 720
121 100 830
122 82 693
123 290 209
124 522 281
125 331 406
126 426 244
127 529 618
128 638 99
129 153 648
130 124 719
131 419 70
132 12 653
133 433 169
134 370 686
135 811 620
136 160 691
137 204 673
138 57 666
139 326 401
140 627 541
141 332 114
142 497 575
143 469 605
144 49 648
145 547 588
146 305 746
147 192 805
148 370 621
149 759 660
150 89 757
151 287 223
152 380 129
153 286 386
154 23 745
155 21 738
156 441 683
157 402 577
158 255 442
159 260 288
160 322 693
161 502 313
162 431 473
163 106 701
164 390 398
165 443 175
166 335 272
167 156 178
168 390 225
169 194 867
170 170 621
171 311 241
172 358 323
173 427 911
174 555 239
175 55 781
176 374 566
177 388 263
178 352 701
179 82 671
180 451 565
181 91 833
182 292 609
183 466 592
184 561 488
185 131 779
186 186 699
187 567 525
188 635 481
189 404 512
190 459 694
191 456 399
192 91 725
193 483 196
194 317 460
195 128 824
196 481 179
197 517 442
198 97 705
199 263 806
200 381 215
201 386 164
202 497 137
203 311 737
204 100 611
205 414 525
206 79 643
207 284 318
208 155 706
209 426 661
210 297 164
211 454 197
212 499 697
213 480 310
214 145 692
215 390 236
216 350 333
217 605 460
218 709 391
219 426 192
220 98 767
221 141 672
222 399 684
223 107 853
224 56 774
225 309 266
226 376 510
227 205 771
228 105 676
229 682 508
230 236 173
231 256 311
232 59 713
233 307 278
234 735 524
235 566 711
236 320 437
237 71 844
238 18 737
239 430 559
240 85 479
241 376 276
242 171 400
243 430 237
244 201 588
245 478 593
246 291 132
247 464 582
248 669 494
249 562 733
250 298 173
251 438 567
252 402 206
253 150 291
254 364 561
255 415 580
256 87 693
257 502 751
258 132 831
259 574 481
260 19 707
261 486 590
262 399 205
263 165 712
264 63 746
265 50 740
266 514 246
267 400 617
268 421 162
269 497 582
270 260 817
271 40 768
272 58 721
273 332 614
274 190 878
275 346 218
PICKUP_AND_DELIVERY_SECTION
1 0 0 1000000000 0 0 0
2 0 0 1000000000 0 0 1
3 0 0 1000000000 0 1 0
4 0 0 1000000000 0 0 1
5 0 0 1000000000 0 1 0
6 0 0 1000000000 0 0 1
7 0 0 1000000000 0 1 0
8 0 0 1000000000 0 0 1
9 0 0 1000000000 0 1 0
10 0 0 1000000000 0 0 1
11 0 0 1000000000 0 1 0
12 0 0 1000000000 0 0 1
13 0 0 1000000000 0 1 0
14 0 0 1000000000 0 0 1
15 0 0 1000000000 0 1 0
16 0 0 1000000000 0 0 1
17 0 0 1000000000 0 1 0
18 0 0 1000000000 0 0 1
19 0 0 1000000000 0 1 0
20 0 0 1000000000 0 0 1
21 0 0 1000000000 0 1 0
22 0 0 1000000000 0 0 1
23 0 0 1000000000 0 1 0
24 0 0 1000000000 0 0 1
25 0 0 1000000000 0 1 0
26 0 0 1000000000 0 0 1
27 0 0 1000000000 0 1 0
28 0 0 1000000000 0 0 1
29 0 0 1000000000 0 1 0
30 0 0 1000000000 0 0 1
31 0 0 1000000000 0 1 0
32 0 0 1000000000 0 0 1
33 0 0 1000000000 0 1 0
34 0 0 1000000000 0 0 1
35 0 0 1000000000 0 1 0
36 0 0 1000000000 0 0 1
37 0 0 1000000000 0 1 0
38 0 0 1000000000 0 0 1
39 0 0 1000000000 0 1 0
40 0 0 1000000000 0 0 1
41 0 0 1000000000 0 1 0
42 0 0 1000000000 0 0 1
43 0 0 1000000000 0 1 0
44 0 0 1000000000 0 0 1
45 0 0 1000000000 0 1 0
46 0 0 1000000000 0 0 1
47 0 0 1000000000 0 1 0
48 0 0 1000000000 0 0 1
49 0 0 1000000000 0 1 0
50 0 0 1000000000 0 0 1
51 0 0 1000000000 0 1 0
52 0 0 1000000000 0 0 1
53 0 0 1000000000 0 1 0
54 0 0 1000000000 0 0 1
55 0 0 1000000000 0 1 0
56 0 0 1000000000 0 0 1
57 0 0 1000000000 0 1 0
58 0 0 1000000000 0 0 1
59 0 0 1000000000 0 1 0
60 0 0 1000000000 0 0 1
61 0 0 1000000000 0 1 0
62 0 0 1000000000 0 0 1
63 0 0 1000000000 0 1 0
64 0 0 1000000000 0 0 1
65 0 0 1000000000 0 1 0
66 0 0 1000000000 0 0 1
67 0 0 1000000000 0 1 0
68 0 0 1000000000 0 0 1
69 0 0 1000000000 0 1 0
70 0 0 1000000000 0 0 1
71 0 0 1000000000 0 1 0
72 0 0 1000000000 0 0 1
73 0 0 1000000000 0 1 0
74 0 0 1000000000 0 0 1
75 0 0 1000000000 0 1 0
76 0 0 1000000000 0 0 1
77 0 0 1000000000 0 1 0
78 0 0 1000000000 0 0 1
79 0 0 1000000000 0 1 0
80 0 0 1000000000 0 0 1
81 0 0 1000000000 0 1 0
82 0 0 1000000000 0 0 1
83 0 0 1000000000 0 1 0
84 0 0 1000000000 0 0 1
85 0 0 1000000000 0 1 0
86 0 0 1000000000 0 0 1
87 0 0 1000000000 0 1 0
88 0 0 1000000000 0 0 1
89 0 0 1000000000 0 1 0
90 0 0 1000000000 0 0 1
91 0 0 1000000000 0 1 0
92 0 0 1000000000 0 0 1
93 0 0 1000000000 0 1 0
94 0 0 1000000000 0 0 1
95 0 0 1000000000 0 1 0
96 0 0 1000000000 0 0 1
97 0 0 1000000000 0 1 0
98 0 0 1000000000 0 0 1
99 0 0 1000000000 0 1 0
100 0 0 1000000000 0 0 1
101 0 0 1000000000 0 1 0
102 0 0 1000000000 0 0 1
103 0 0 1000000000 0 1 0
104 0 0 1000000000 0 0 1
105 0 0 1000000000 0 1 0
106 0 0 1000000000 0 0 1
107 0 0 1000000000 0 1 0
108 0 0 1000000000 0 0 1
109 0 0 1000000000 0 1 0
110 0 0 1000000000 0 0 1
111 0 0 1000000000 0 1 0
112 0 0 1000000000 0 0 1
113 0 0 1000000000 0 1 0
114 0 0 1000000000 0 0 1
115 0 0 1000000000 0 1 0
116 0 0 1000000000 0 0 1
117 0 0 1000000000 0 1 0
118 0 0 1000000000 0 0 1
119 0 0 1000000000 0 1 0
120 0 0 1000000000 0 0 1
121 0 0 1000000000 0 1 0
122 0 0 1000000000 0 0 1
123 0 0 1000000000 0 1 0
124 0 0 1000000000 0 0 1
125 0 0 1000000000 0 1 0
126 0 0 1000000000 0 0 1
127 0 0 1000000000 0 1 0
128 0 0 1000000000 0 0 1
129 0 0 1000000000 0 1 0
130 0 0 1000000000 0 0 1
131 0 0 1000000000 0 1 0
132 0 0 1000000000 0 0 1
133 0 0 1000000000 0 1 0
134 0 0 1000000000 0 0 1
135 0 0 1000000000 0 1 0
136 0 0 1000000000 0 0 1
137 0 0 1000000000 0 1 0
138 0 0 1000000000 0 0 1
139 0 0 1000000000 0 1 0
140 0 0 1000000000 0 0 1
141 0 0 1000000000 0 1 0
142 0 0 1000000000 0 0 1
143 0 0 1000000000 0 1 0
144 0 0 1000000000 0 0 1
145 0 0 1000000000 0 1 0
146 0 0 1000000000 0 0 1
147 0 0 1000000000 0 1 0
148 0 0 1000000000 0 0 1
149 0 0 1000000000 0 1 0
150 0 0 1000000000 0 0 1
151 0 0 1000000000 0 1 0
152 0 0 1000000000 0 0 1
153 0 0 1000000000 0 1 0
154 0 0 1000000000 0 0 1
155 0 0 1000000000 0 1 0
156 0 0 1000000000 0 0 1
157 0 0 1000000000 0 1 0
158 0 0 1000000000 0 0 1
159 0 0 1000000000 0 1 0
160 0 0 1000000000 0 0 1
161 0 0 1000000000 0 1 0
162 0 0 1000000000 0 0 1
163 0 0 1000000000 0 1 0
164 0 0 1000000000 0 0 1
165 0 0 1000000000 0 1 0
166 0 0 1000000000 0 0 1
167 0 0 1000000000 0 1 0
168 0 0 1000000000 0 0 1
169 0 0 1000000000 0 1 0
170 0 0 1000000000 0 0 1
171 0 0 1000000000 0 1 0
172 0 0 1000000000 0 0 1
173 0 0 1000000000 0 1 0
174 0 0 1000000000 0 0 1
175 0 0 1000000000 0 1 0
176 0 0 1000000000 0 0 1
177 0 0 1000000000 0 1 0
178 0 0 1000000000 0 0 1
179 0 0 1000000000 0 1 0
180 0 0 1000000000 0 0 1
181 0 0 1000000000 0 1 0
182 0 0 1000000000 0 0 1
183 0 0 1000000000 0 1 0
184 0 0 1000000000 0 0 1
185 0 0 1000000000 0 1 0
186 0 0 1000000000 0 0 1
187 0 0 1000000000 0 1 0
188 0 0 1000000000 0 0 1
189 0 0 1000000000 0 1 0
190 0 0 1000000000 0 0 1
191 0 0 1000000000 0 1 0
192 0 0 1000000000 0 0 1
193 0 0 1000000000 0 1 0
194 0 0 1000000000 0 0 1
195 0 0 1000000000 0 1 0
196 0 0 1000000000 0 0 1
197 0 0 1000000000 0 1 0
198 0 0 1000000000 0 0 1
199 0 0 1000000000 0 1 0
200 0 0 1000000000 0 0 1
201 0 0 1000000000 0 1 0
202 0 0 1000000000 0 0 1
203 0 0 1000000000 0 1 0
204 0 0 1000000000 0 0 1
205 0 0 1000000000 0 1 0
206 0 0 1000000000 0 0 1
207 0 0 1000000000 0 1 0
208 0 0 1000000000 0 0 1
209 0 0 1000000000 0 1 0
210 0 0 1000000000 0 0 1
211 0 0 1000000000 0 1 0
212 0 0 1000000000 0 0 1
213 0 0 1000000000 0 1 0
214 0 0 1000000000 0 0 1
215 0 0 1000000000 0 1 0
216 0 0 1000000000 0 0 1
217 0 0 1000000000 0 1 0
218 0 0 1000000000 0 0 1
219 0 0 1000000000 0 1 0
220 0 0 1000000000 0 0 1
221 0 0 1000000000 0 1 0
222 0 0 1000000000 0 0 1
223 0 0 1000000000 0 1 0
224 0 0 1000000000 0 0 1
225 0 0 1000000000 0 1 0
226 0 0 1000000000 0 0 1
227 0 0 1000000000 0 1 0
228 0 0 1000000000 0 0 1
229 0 0 1000000000 0 1 0
230 0 0 1000000000 0 0 1
231 0 0 1000000000 0 1 0
232 0 0 1000000000 0 0 1
233 0 0 1000000000 0 1 0
234 0 0 1000000000 0 0 1
235 0 0 1000000000 0 1 0
236 0 0 1000000000 0 0 1
237 0 0 1000000000 0 1 0
238 0 0 1000000000 0 0 1
239 0 0 1000000000 0 1 0
240 0 0 1000000000 0 0 1
241 0 0 1000000000 0 1 0
242 0 0 1000000000 0 0 1
243 0 0 1000000000 0 1 0
244 0 0 1000000000 0 0 1
245 0 0 1000000000 0 1 0
246 0 0 1000000000 0 0 1
247 0 0 1000000000 0 1 0
248 0 0 1000000000 0 0 1
249 0 0 1000000000 0 1 0
250 0 0 1000000000 0 0 1
251 0 0 1000000000 0 1 0
252 0 0 1000000000 0 0 1
253 0 0 1000000000 0 1 0
254 0 0 1000000000 0 0 1
255 0 0 1000000000 0 1 0
256 0 0 1000000000 0 0 1
257 0 0 1000000000 0 1 0
258 0 0 1000000000 0 0 1
259 0 0 1000000000 0 1 0
260 0 0 1000000000 0 0 1
261 0 0 1000000000 0 1 0
262 0 0 1000000000 0 0 1
263 0 0 1000000000 0 1 0
264 0 0 1000000000 0 0 1
265 0 0 1000000000 0 1 0
266 0 0 1000000000 0 0 1
267 0 0 1000000000 0 1 0
268 0 0 1000000000 0 0 1
269 0 0 1000000000 0 1 0
270 0 0 1000000000 0 0 1
271 0 0 1000000000 0 1 0
272 0 0 1000000000 0 0 1
273 0 0 1000000000 0 1 0
274 0 0 1000000000 0 0 1
275 0 0 1000000000 0 1 0
